%chk=esp_5.chk
%mem=24GB
%nprocshared=12
%oldchk=../fine-opt/fine_5.chk
# rb3lyp/6-311++g(d,p) IOp(6/33=2,6/41=10,6/42=17) geom=AllCheck guess=read pop=MK scf=tight scrf=(pcm,solvent=thf)

esp_5

0 1
F 5.381736 -0.349348 0.657291
C 4.210711 0.335774 0.421312
F 4.448932 1.164465 -0.650493
C 3.120600 -0.660818 0.095059
O 1.908558 0.053800 -0.022847
C 0.798618 -0.777232 -0.343827
C -0.421316 0.123032 -0.435810
O -1.532102 -0.724147 -0.752002
C -2.738403 -0.064437 -1.041252
C -3.598152 0.150845 0.199517
F -3.886548 -1.007558 0.829432
F -3.008507 0.957021 1.114094
F -4.774775 0.728015 -0.140927
H 3.996637 0.963111 1.286780
H 3.073204 -1.397104 0.907754
H 3.378508 -1.178838 -0.838093
H 0.965317 -1.287990 -1.300345
H 0.649676 -1.536500 0.434379
H -0.282392 0.869444 -1.226399
H -0.578301 0.640657 0.514858
H -2.580035 0.910340 -1.514783
H -3.314153 -0.696675 -1.719925



